40 103
7 25 28
2 5 8 9 12 16 22 23 31
1 4 34 36 37 39
17 27 31
2 18 19 22 36 39
1 13 18 19 27 30
8 10 11 14 18 20
0 30 34
1 6 11 24 28 29 31 39
1 12 17 23 26 28 38 39
6 15 23 30
6 8 17 23 24 28
1 9
5 25 31 37 39
6 28 32 38
10 18 19 20 27 29 38
1 17 19 20 39
3 9 11 16 30 31 37
4 5 6 15 30 35
4 5 15 16 27 39
6 15 16 23 33
31
1 4
1 9 10 11 20 28
8 11 26
0 13 39
9 24 29 39
3 5 15 19
0 8 9 11 14 23 29 37 39
8 15 26 28
5 7 10 17 18 34 37
1 3 8 13 17 21 32 37
14 31 35
20 34 39
2 7 30 33
18 32 37
2 4
2 13 17 28 30 31 35 39
9 14 15 39
2 4 8 9 13 16 19 25 26 28 33 37 38
